c File: instances/40_0.05_3.col
c
c Description: Random graph of size 40 vertices and P(0.05) of edges between any two vertices.
p col 40 780
e 1 28
e 5 21
e 6 7
e 6 10
e 6 34
e 6 38
e 7 32
e 7 39
e 8 15
e 10 11
e 10 23
e 10 24
e 10 40
e 11 38
e 12 35
e 12 38
e 12 40
e 14 18
e 15 37
e 18 25
e 18 26
e 18 37
e 20 37
e 21 26
e 22 32
e 23 39
e 29 31
e 36 40